20 2
9 8
0 0 0 9 2 3 4 5 8 9 12 14 19
19 2 3 2 16 15
18 2 3 3 7 17 6
19 3 3 3 18 6 17
15 3 3 3 15 11 10
11 3 2 1 20
16 3 3 1 16
9 3 3 1 20
7 3 3 1 17
5 2 2 1 13
5 2 2 1 20
8 3 3 1 20
14 3 3 1 20
10 3 3 1 20
15 2 2 1 20
16 3 3 1 18
6 3 3 1 20
19 2 2 1 20
12 2 2 1 20
0 0 0 0
